(set-logic LIA)
(declare-var conf_0 Int)
(declare-var conf_0! Int)
(declare-var m Int)
(declare-var m! Int)
(declare-var n Int)
(declare-var n! Int)
(declare-var x Int)
(declare-var x! Int)
(declare-var tmp Int)
(declare-var tmp! Int)
(declare-var conf_0_0 Int)
(declare-var conf_0_0! Int)
(declare-var conf_0_1 Int)
(declare-var conf_0_1! Int)
(declare-var conf_0_2 Int)
(declare-var conf_0_2! Int)
(declare-var conf_0_3 Int)
(declare-var conf_0_3! Int)
(declare-var conf_0_4 Int)
(declare-var conf_0_4! Int)
(declare-var m_0 Int)
(declare-var m_0! Int)
(declare-var m_1 Int)
(declare-var m_1! Int)
(declare-var m_2 Int)
(declare-var m_2! Int)
(declare-var m_3 Int)
(declare-var m_3! Int)
(declare-var m_4 Int)
(declare-var m_4! Int)
(declare-var n_0 Int)
(declare-var n_0! Int)
(declare-var x_0 Int)
(declare-var x_0! Int)
(declare-var x_1 Int)
(declare-var x_1! Int)
(declare-var x_2 Int)
(declare-var x_2! Int)
(declare-var x_3 Int)
(declare-var x_3! Int)
(synth-fun inv-f((parameter0 Int)(parameter1 Int)(parameter2 Int)(parameter3 Int)(parameter4 Int)(parameter5 Int)(parameter6 Int)(parameter7 Int)(parameter8 Int)(parameter9 Int)(parameter10 Int)(parameter11 Int)(parameter12 Int)(parameter13 Int)(parameter14 Int)(parameter15 Int)(parameter16 Int)(parameter17 Int)(parameter18 Int)(parameter19 Int))Bool) 
(constraint (=> (and (= conf_0 conf_0_0) (= m m_1) (= x x_1) (= conf_0_0 2) (= x_1 0) (= m_1 0) )(inv-f conf_0 m n x tmp conf_0_0 conf_0_1 conf_0_2 conf_0_3 conf_0_4 m_0 m_1 m_2 m_3 m_4 n_0 x_0 x_1 x_2 x_3 )))
(constraint (=> (and (inv-f conf_0 m n x tmp conf_0_0 conf_0_1 conf_0_2 conf_0_3 conf_0_4 m_0 m_1 m_2 m_3 m_4 n_0 x_0 x_1 x_2 x_3 ) (or (and (= conf_0_1 conf_0) (= m_2 m) (= x_2 x) (= conf_0_1 conf_0!) (= m_2 m!) (= x_2 x!) (= n n_0) (= n! n_0) (= conf_0 conf_0!) (= m m!) (= tmp tmp!) ) (and (= conf_0_1 conf_0) (= m_2 m) (= x_2 x) (< x_2 n_0) (= m_3 x_2) (= conf_0_2 (- 161 conf_0_1)) (= conf_0_3 conf_0_2) (= m_4 m_3) (= x_3 (+ x_2 1 )) (= conf_0_4 (+ conf_0_3 483 )) (= conf_0_4 conf_0!) (= m_4 m!) (= x_3 x!) (= n n_0) (= n! n_0) (= tmp tmp!) ) (and (= conf_0_1 conf_0) (= m_2 m) (= x_2 x) (< x_2 n_0) (= conf_0_3 conf_0_1) (= m_4 m_2) (= x_3 (+ x_2 1 )) (= conf_0_4 (+ conf_0_3 483 )) (= conf_0_4 conf_0!) (= m_4 m!) (= x_3 x!) (= n n_0) (= n! n_0) (= tmp tmp!) ) ) )(inv-f conf_0! m! n! x! tmp! conf_0_0! conf_0_1! conf_0_2! conf_0_3! conf_0_4! m_0! m_1! m_2! m_3! m_4! n_0! x_0! x_1! x_2! x_3! )))
(constraint (=> (inv-f conf_0 m n x tmp conf_0_0 conf_0_1 conf_0_2 conf_0_3 conf_0_4 m_0 m_1 m_2 m_3 m_4 n_0 x_0 x_1 x_2 x_3 )(or (not (and (= conf_0 conf_0_1) (= m m_2) (= n n_0) (= x x_2) )) (not (and (not (< x_2 n_0)) (> n_0 0) (not (>= m_2 0)) )) )))
(check-synth)

